WARNING: for repeatability, setting FPU to use double precision
============================[ Problem Statistics ]=============================
|                                                                             |
|  Number of variables:        229900                                         |
|  Number of clauses:          532396                                         |
|  Parse time:                   0.16 s                                       |
|                                                                             |
============================[ Search Statistics ]==============================
| Conflicts |          ORIGINAL         |          LEARNT          | Progress |
|           |    Vars  Clauses Literals |    Limit  Clauses Lit/Cl |          |
===============================================================================
|       100 |  126946   510301  1146948 |   187110      100      9 | 44.782 % |
|       250 |  126946   510301  1146948 |   205821      250     22 | 44.782 % |
|       475 |  126946   510301  1146948 |   226403      475     23 | 44.782 % |
===============================================================================
restarts              : 6
conflicts             : 636            (1371 /sec)
decisions             : 11447          (0.00 % random) (24669 /sec)
propagations          : 2136565        (4604378 /sec)
conflict literals     : 16221          (4.68 % deleted)
Memory used           : 57.00 MB
CPU time              : 0.464029 s

SATISFIABLE
